p wcnf 16 59 646
646 1 2 0
646 1 16 0
646 2 4 0
646 2 6 0
646 2 8 0
646 2 12 0
646 2 14 0
646 2 15 0
646 3 9 0
646 4 8 0
646 4 11 0
646 4 12 0
646 4 15 0
646 4 16 0
646 5 8 0
646 5 9 0
646 5 10 0
646 5 11 0
646 5 12 0
646 5 14 0
646 5 15 0
646 5 16 0
646 6 7 0
646 6 10 0
646 6 15 0
646 7 12 0
646 7 13 0
646 7 15 0
646 8 14 0
646 8 15 0
646 9 12 0
646 9 13 0
646 9 15 0
646 9 16 0
646 10 13 0
646 10 14 0
646 11 13 0
646 11 14 0
646 12 13 0
646 12 15 0
646 13 14 0
646 13 15 0
646 13 16 0
41 -1 0
37 -2 0
42 -3 0
38 -4 0
35 -5 0
40 -6 0
40 -7 0
41 -8 0
39 -9 0
41 -10 0
41 -11 0
41 -12 0
40 -13 0
43 -14 0
43 -15 0
43 -16 0
